













































































8 45 98 
31 87 102 
35 49 66 103 
41 2 29 
101 22 42 
52 90 74 28 
80 53 61 
78 62 18 
48 26 27 50 
14 93 20 
73 60 40 
39 36 15 
92 9 70 
81 34 10 
94 32 97 
77 114 68 
106 44 3 89 
23 58 4 
46 104 88 
65 63 19 
30 0 43 
21 91 105 
11 72 47 
56 51 57 
1 79 64 
107 99 13 
85 111 100 
59 12 83 67 
82 38 6 
75 84 7 
17 110 
55 109 
86 76 69 
96 5 24 
16 113 25 
108 95 112 33 
71 37 54 
